Instance: Data/Instances_txt/inst_60_30_2.txt
SetUpTime: 17.984777212142944

Gurobi 10.0.1 (mac64[x86]) logging started Di  1 Aug 16:31:19 2023

Set parameter LogFile to value "Output/MILP_inst_60_30_2_2023-08-01_16-28-50.txt"
Set parameter TimeLimit to value 2700

Gurobi 10.0.1 (mac64[x86]) logging started Di  1 Aug 16:31:19 2023

Set parameter LogFile to value "Output/MILP_inst_60_30_2_2023-08-01_16-28-50.txt"
Gurobi Optimizer version 10.0.1 build v10.0.1rc0 (mac64[x86])

CPU model: Intel(R) Core(TM) i5-1038NG7 CPU @ 2.00GHz
Thread count: 4 physical cores, 8 logical processors, using up to 8 threads

Optimize a model with 121 rows, 27233 columns and 192368 nonzeros
Model fingerprint: 0xe47dc046
Variable types: 0 continuous, 27233 integer (0 binary)
Coefficient statistics:
  Matrix range     [1e+00, 1e+00]
  Objective range  [4e+00, 6e+03]
  Bounds range     [1e+00, 1e+00]
  RHS range        [1e+00, 1e+00]
Presolve removed 0 rows and 61 columns
Presolve time: 0.46s
Presolved: 121 rows, 27172 columns, 191854 nonzeros
Variable types: 0 continuous, 27172 integer (27172 binary)

Root relaxation: objective 1.196813e+04, 2122 iterations, 1.03 seconds (1.49 work units)

    Nodes    |    Current Node    |     Objective Bounds      |     Work
 Expl Unexpl |  Obj  Depth IntInf | Incumbent    BestBd   Gap | It/Node Time

     0     0 11968.1270    0   95          - 11968.1270      -     -    1s
     0     0 11968.2006    0   94          - 11968.2006      -     -    1s
     0     0 11969.0520    0  100          - 11969.0520      -     -    2s
     0     0 11970.8373    0  101          - 11970.8373      -     -    2s
H    0     0                    16629.000000 11970.8373  28.0%     -    2s
H    0     0                    16073.000000 11970.8373  25.5%     -    2s
     0     0 11977.5554    0   94 16073.0000 11977.5554  25.5%     -    2s
     0     0 11981.8411    0   97 16073.0000 11981.8411  25.5%     -    5s
H    0     0                    15616.000000 11981.8411  23.3%     -    6s
H    0     0                    14511.000000 11981.8411  17.4%     -    6s
     0     0 12128.7060    0  100 14511.0000 12128.7060  16.4%     -    7s
H    0     0                    12438.000000 12128.7060  2.49%     -    8s
H    0     0                    12430.000000 12128.7060  2.42%     -    8s
     0     0 12153.3109    0  111 12430.0000 12153.3109  2.23%     -    8s
     0     0 12165.2734    0  113 12430.0000 12165.2734  2.13%     -    8s
     0     0 12167.5504    0  119 12430.0000 12167.5504  2.11%     -    8s
     0     0 12171.5437    0  115 12430.0000 12171.5437  2.08%     -    8s
     0     0 12174.2444    0  112 12430.0000 12174.2444  2.06%     -    8s
     0     0 12176.1090    0  114 12430.0000 12176.1090  2.04%     -    8s
     0     0 12179.7323    0  110 12430.0000 12179.7323  2.01%     -    8s
     0     0 12182.4596    0  112 12430.0000 12182.4596  1.99%     -    8s
     0     0 12183.8321    0  110 12430.0000 12183.8321  1.98%     -    8s
     0     0 12185.5318    0  110 12430.0000 12185.5318  1.97%     -    8s
     0     0 12187.0855    0  113 12430.0000 12187.0855  1.95%     -    8s
     0     0 12189.7018    0  119 12430.0000 12189.7018  1.93%     -    9s
     0     0 12191.6973    0  120 12430.0000 12191.6973  1.92%     -    9s
     0     0 12192.8350    0  123 12430.0000 12192.8350  1.91%     -    9s
     0     0 12193.5491    0  122 12430.0000 12193.5491  1.90%     -    9s
     0     0 12194.7299    0  126 12430.0000 12194.7299  1.89%     -    9s
     0     0 12195.4863    0  124 12430.0000 12195.4863  1.89%     -    9s
     0     0 12195.7352    0  121 12430.0000 12195.7352  1.88%     -    9s
     0     0 12196.2556    0  122 12430.0000 12196.2556  1.88%     -    9s
     0     0 12196.5652    0  123 12430.0000 12196.5652  1.88%     -    9s
     0     0 12197.1060    0  126 12430.0000 12197.1060  1.87%     -    9s
     0     0 12197.7061    0  123 12430.0000 12197.7061  1.87%     -    9s
     0     0 12197.7495    0  119 12430.0000 12197.7495  1.87%     -    9s
     0     0 12198.3722    0  125 12430.0000 12198.3722  1.86%     -    9s
     0     0 12198.7555    0  126 12430.0000 12198.7555  1.86%     -    9s
     0     0 12198.9388    0  126 12430.0000 12198.9388  1.86%     -    9s
     0     0 12199.1874    0  125 12430.0000 12199.1874  1.86%     -    9s
     0     0 12199.6363    0  123 12430.0000 12199.6363  1.85%     -    9s
     0     0 12199.9332    0  125 12430.0000 12199.9332  1.85%     -    9s
     0     0 12200.3636    0  124 12430.0000 12200.3636  1.85%     -    9s
     0     0 12200.6333    0  122 12430.0000 12200.6333  1.85%     -    9s
     0     0 12200.9418    0  124 12430.0000 12200.9418  1.84%     -    9s
     0     0 12201.3769    0  123 12430.0000 12201.3769  1.84%     -    9s
     0     0 12235.3238    0  124 12430.0000 12235.3238  1.57%     -   10s
     0     0 12235.3238    0  123 12430.0000 12235.3238  1.57%     -   10s
     0     0 12235.3238    0  124 12430.0000 12235.3238  1.57%     -   10s
     0     0 12235.3238    0  124 12430.0000 12235.3238  1.57%     -   10s
     0     0 12235.3238    0  120 12430.0000 12235.3238  1.57%     -   10s
     0     0 12235.3238    0  126 12430.0000 12235.3238  1.57%     -   10s
     0     0 12235.3238    0  124 12430.0000 12235.3238  1.57%     -   10s
     0     0 12235.3238    0  119 12430.0000 12235.3238  1.57%     -   10s
     0     0 12235.3238    0  122 12430.0000 12235.3238  1.57%     -   10s
     0     0 12235.3238    0  126 12430.0000 12235.3238  1.57%     -   10s
     0     0 12235.3238    0  120 12430.0000 12235.3238  1.57%     -   10s
     0     0 12235.3238    0  117 12430.0000 12235.3238  1.57%     -   10s
     0     0 12235.3238    0   86 12430.0000 12235.3238  1.57%     -   11s
     0     0 12235.3238    0   85 12430.0000 12235.3238  1.57%     -   11s
     0     0 12235.3238    0   84 12430.0000 12235.3238  1.57%     -   11s
     0     0 12235.3238    0   85 12430.0000 12235.3238  1.57%     -   11s
     0     0 12235.3238    0   85 12430.0000 12235.3238  1.57%     -   11s
     0     0 12235.3238    0   84 12430.0000 12235.3238  1.57%     -   11s
     0     0 12235.3238    0   85 12430.0000 12235.3238  1.57%     -   11s
     0     0 12235.3238    0   84 12430.0000 12235.3238  1.57%     -   11s
     0     0 12235.3238    0   93 12430.0000 12235.3238  1.57%     -   11s
     0     0 12235.3238    0   91 12430.0000 12235.3238  1.57%     -   11s
     0     0 12235.3238    0   93 12430.0000 12235.3238  1.57%     -   11s
H    0     0                    12316.000000 12235.3238  0.66%     -   11s
     0     0 12259.3118    0   95 12316.0000 12259.3118  0.46%     -   12s
H    0     1                    12315.000000 12259.3118  0.45%     -   12s

Cutting planes:
  Clique: 20
  Zero half: 5
  RLT: 19

Explored 1 nodes (9619 simplex iterations) in 12.40 seconds (12.07 work units)
Thread count was 8 (of 8 available processors)

Solution count 8: 12315 12316 12430 ... 16629

Optimal solution found (tolerance 1.00e-04)
Best objective 1.231500000000e+04, best bound 1.231500000000e+04, gap 0.0000%

User-callback calls 1650, time in user-callback 0.01 sec

=========================

OUTPUT STATISTICS
Relaxed: false
Time since start: 31.040832042694092
SetUpTime: 17.984777212142944
Objective value: 12315.0
Number of variables: 27233
Solving time: 13.038366079330444
